language Essence 1.3

letting can_fly be
        relation((1, 1), (1, 3), (1, 4), (1, 5), (1, 6), (1, 12), (1, 13), (1, 14), (1, 17), (1, 20), (1, 21), (1, 22),
                 (1, 24), (1, 30), (2, 5), (2, 6), (2, 8), (2, 9), (2, 10), (2, 11), (2, 12), (2, 13), (2, 15), (2, 16),
                 (2, 17), (2, 18), (2, 20), (2, 21), (2, 22), (2, 24), (2, 27), (3, 1), (3, 2), (3, 3), (3, 4), (3, 5),
                 (3, 7), (3, 8), (3, 9), (3, 11), (3, 14), (3, 16), (3, 24), (3, 25), (3, 26), (3, 27), (4, 3), (4, 7),
                 (4, 8), (4, 9), (4, 11), (4, 13), (4, 14), (4, 16), (4, 17), (4, 18), (4, 19), (4, 28), (4, 29),
                 (4, 30), (5, 1), (5, 2), (5, 7), (5, 10), (5, 12), (5, 14), (5, 16), (5, 17), (5, 18), (5, 20),
                 (5, 21), (5, 24), (5, 25), (5, 26), (6, 1), (6, 4), (6, 6), (6, 7), (6, 8), (6, 11), (6, 12), (6, 15),
                 (6, 17), (6, 18), (6, 19), (6, 21), (6, 24), (6, 25), (6, 26), (6, 27), (6, 28), (6, 30), (7, 3),
                 (7, 4), (7, 5), (7, 7), (7, 9), (7, 12), (7, 14), (7, 16), (7, 17), (7, 18), (7, 22), (7, 25), (7, 26),
                 (7, 28), (7, 30), (8, 1), (8, 3), (8, 6), (8, 10), (8, 11), (8, 12), (8, 13), (8, 14), (8, 16),
                 (8, 19), (8, 20), (8, 22), (8, 23), (8, 24), (8, 27), (9, 1), (9, 3), (9, 4), (9, 6), (9, 7), (9, 8),
                 (9, 9), (9, 11), (9, 14), (9, 15), (9, 16), (9, 18), (9, 20), (9, 22), (9, 23), (9, 29), (9, 30),
                 (10, 3), (10, 5), (10, 6), (10, 8), (10, 10), (10, 11), (10, 13), (10, 16), (10, 22), (10, 23),
                 (10, 24), (10, 27), (10, 30), (11, 1), (11, 2), (11, 3), (11, 4), (11, 5), (11, 6), (11, 7), (11, 15),
                 (11, 16), (11, 17), (11, 19), (11, 20), (11, 21), (11, 22), (11, 25), (11, 26), (11, 27), (11, 28),
                 (12, 1), (12, 2), (12, 5), (12, 9), (12, 12), (12, 14), (12, 15), (12, 16), (12, 18), (12, 21),
                 (12, 22), (12, 23), (12, 24), (12, 26), (12, 28), (12, 29), (12, 30), (13, 1), (13, 2), (13, 6),
                 (13, 13), (13, 14), (13, 15), (13, 17), (13, 19), (13, 23), (13, 24), (13, 25), (13, 26), (13, 27),
                 (13, 28))
$ Visualisation for can_fly
$  1  1
$  1  3
$  1  4
$  1  5
$  1  6
$  1 12
$  1 13
$  1 14
$  1 17
$  1 20
$  1 21
$  1 22
$  1 24
$  1 30
$  2  5
$  2  6
$  2  8
$  2  9
$  2 10
$  2 11
$  2 12
$  2 13
$  2 15
$  2 16
$  2 17
$  2 18
$  2 20
$  2 21
$  2 22
$  2 24
$  2 27
$  3  1
$  3  2
$  3  3
$  3  4
$  3  5
$  3  7
$  3  8
$  3  9
$  3 11
$  3 14
$  3 16
$  3 24
$  3 25
$  3 26
$  3 27
$  4  3
$  4  7
$  4  8
$  4  9
$  4 11
$  4 13
$  4 14
$  4 16
$  4 17
$  4 18
$  4 19
$  4 28
$  4 29
$  4 30
$  5  1
$  5  2
$  5  7
$  5 10
$  5 12
$  5 14
$  5 16
$  5 17
$  5 18
$  5 20
$  5 21
$  5 24
$  5 25
$  5 26
$  6  1
$  6  4
$  6  6
$  6  7
$  6  8
$  6 11
$  6 12
$  6 15
$  6 17
$  6 18
$  6 19
$  6 21
$  6 24
$  6 25
$  6 26
$  6 27
$  6 28
$  6 30
$  7  3
$  7  4
$  7  5
$  7  7
$  7  9
$  7 12
$  7 14
$  7 16
$  7 17
$  7 18
$  7 22
$  7 25
$  7 26
$  7 28
$  7 30
$  8  1
$  8  3
$  8  6
$  8 10
$  8 11
$  8 12
$  8 13
$  8 14
$  8 16
$  8 19
$  8 20
$  8 22
$  8 23
$  8 24
$  8 27
$  9  1
$  9  3
$  9  4
$  9  6
$  9  7
$  9  8
$  9  9
$  9 11
$  9 14
$  9 15
$  9 16
$  9 18
$  9 20
$  9 22
$  9 23
$  9 29
$  9 30
$ 10  3
$ 10  5
$ 10  6
$ 10  8
$ 10 10
$ 10 11
$ 10 13
$ 10 16
$ 10 22
$ 10 23
$ 10 24
$ 10 27
$ 10 30
$ 11  1
$ 11  2
$ 11  3
$ 11  4
$ 11  5
$ 11  6
$ 11  7
$ 11 15
$ 11 16
$ 11 17
$ 11 19
$ 11 20
$ 11 21
$ 11 22
$ 11 25
$ 11 26
$ 11 27
$ 11 28
$ 12  1
$ 12  2
$ 12  5
$ 12  9
$ 12 12
$ 12 14
$ 12 15
$ 12 16
$ 12 18
$ 12 21
$ 12 22
$ 12 23
$ 12 24
$ 12 26
$ 12 28
$ 12 29
$ 12 30
$ 13  1
$ 13  2
$ 13  6
$ 13 13
$ 13 14
$ 13 15
$ 13 17
$ 13 19
$ 13 23
$ 13 24
$ 13 25
$ 13 26
$ 13 27
$ 13 28

letting carry_in be
        function(1 --> 20, 2 --> 8, 3 --> 28, 4 --> 12, 5 --> 6, 6 --> 29, 7 --> 13, 8 --> 22, 9 --> 26, 10 --> 15,
                 11 --> 30, 12 --> 16, 13 --> 7)
letting maint be {3, 4, 5, 8, 10, 13, 14, 16, 18, 20, 21, 22, 23, 25, 27, 28, 30}
letting maint_freq be 9
letting n_flights be 30
letting n_planes be 13
letting network be
        relation((1, 3), (1, 6), (1, 7), (1, 8), (1, 9), (1, 11), (1, 12), (1, 13), (1, 15), (1, 20), (1, 22), (1, 27),
                 (1, 28), (1, 29), (2, 1), (2, 3), (2, 5), (2, 6), (2, 7), (2, 9), (2, 10), (2, 12), (2, 13), (2, 14),
                 (2, 16), (2, 18), (2, 23), (2, 25), (2, 26), (3, 2), (3, 4), (3, 5), (3, 6), (3, 7), (3, 9), (3, 10),
                 (3, 11), (3, 14), (3, 15), (3, 16), (3, 18), (3, 19), (3, 20), (3, 23), (3, 25), (3, 26), (3, 28),
                 (3, 29), (4, 2), (4, 4), (4, 5), (4, 6), (4, 7), (4, 9), (4, 10), (4, 13), (4, 16), (4, 18), (4, 19),
                 (4, 21), (4, 24), (4, 28), (4, 29), (4, 30), (5, 1), (5, 2), (5, 6), (5, 13), (5, 17), (5, 18),
                 (5, 19), (5, 20), (5, 21), (5, 22), (5, 24), (5, 28), (6, 1), (6, 2), (6, 5), (6, 7), (6, 8), (6, 11),
                 (6, 12), (6, 13), (6, 19), (6, 20), (6, 21), (6, 25), (6, 27), (6, 29), (6, 30), (7, 1), (7, 4),
                 (7, 9), (7, 10), (7, 16), (7, 18), (7, 19), (7, 21), (7, 22), (7, 25), (7, 26), (7, 28), (7, 29),
                 (7, 30), (8, 1), (8, 3), (8, 6), (8, 9), (8, 12), (8, 15), (8, 16), (8, 19), (8, 25), (8, 26), (8, 27),
                 (8, 28), (8, 29), (8, 30), (9, 5), (9, 6), (9, 8), (9, 10), (9, 13), (9, 14), (9, 15), (9, 18),
                 (9, 21), (9, 23), (9, 25), (9, 26), (9, 28), (9, 29), (10, 1), (10, 3), (10, 4), (10, 5), (10, 9),
                 (10, 10), (10, 12), (10, 14), (10, 19), (10, 21), (10, 22), (10, 23), (10, 28), (10, 29), (10, 30),
                 (11, 1), (11, 4), (11, 6), (11, 7), (11, 10), (11, 11), (11, 12), (11, 13), (11, 14), (11, 16),
                 (11, 17), (11, 21), (11, 24), (11, 25), (11, 26), (11, 27), (12, 1), (12, 2), (12, 3), (12, 5),
                 (12, 6), (12, 7), (12, 8), (12, 10), (12, 12), (12, 14), (12, 17), (12, 18), (12, 21), (12, 23),
                 (12, 25), (12, 28), (13, 2), (13, 3), (13, 8), (13, 9), (13, 11), (13, 14), (13, 15), (13, 17),
                 (13, 18), (13, 19), (13, 23), (13, 26), (13, 28), (13, 29), (14, 2), (14, 7), (14, 8), (14, 11),
                 (14, 13), (14, 17), (14, 22), (14, 24), (14, 25), (14, 28), (14, 30), (15, 1), (15, 2), (15, 3),
                 (15, 6), (15, 7), (15, 10), (15, 12), (15, 13), (15, 15), (15, 18), (15, 22), (15, 23), (15, 24),
                 (15, 26), (16, 1), (16, 4), (16, 5), (16, 8), (16, 12), (16, 14), (16, 15), (16, 16), (16, 18),
                 (16, 27), (16, 28), (17, 1), (17, 2), (17, 11), (17, 12), (17, 16), (17, 17), (17, 18), (17, 20),
                 (17, 24), (17, 25), (17, 30), (18, 2), (18, 3), (18, 5), (18, 6), (18, 8), (18, 9), (18, 10), (18, 12),
                 (18, 14), (18, 19), (18, 23), (18, 24), (18, 27), (18, 28), (19, 6), (19, 8), (19, 10), (19, 12),
                 (19, 16), (19, 19), (19, 20), (19, 21), (19, 23), (19, 25), (19, 26), (20, 3), (20, 6), (20, 7),
                 (20, 8), (20, 9), (20, 15), (20, 17), (20, 21), (20, 22), (20, 24), (20, 25), (20, 26), (20, 29),
                 (21, 3), (21, 16), (21, 18), (21, 20), (21, 21), (21, 22), (21, 23), (21, 25), (21, 27), (22, 1),
                 (22, 3), (22, 5), (22, 7), (22, 10), (22, 11), (22, 14), (22, 16), (22, 22), (22, 23), (22, 27),
                 (23, 1), (23, 2), (23, 5), (23, 6), (23, 7), (23, 9), (23, 13), (23, 14), (23, 15), (23, 16), (23, 17),
                 (23, 18), (23, 20), (23, 21), (23, 22), (23, 23), (23, 24), (23, 27), (23, 30), (24, 2), (24, 4),
                 (24, 13), (24, 14), (24, 17), (24, 18), (24, 24), (24, 25), (24, 26), (25, 2), (25, 3), (25, 4),
                 (25, 6), (25, 8), (25, 9), (25, 10), (25, 12), (25, 13), (25, 15), (25, 16), (25, 17), (25, 21),
                 (25, 24), (25, 25), (25, 26), (25, 29), (25, 30), (26, 4), (26, 5), (26, 7), (26, 9), (26, 10),
                 (26, 11), (26, 12), (26, 13), (26, 16), (26, 18), (26, 20), (26, 21), (26, 22), (26, 23), (26, 25),
                 (26, 27), (26, 28), (27, 2), (27, 3), (27, 4), (27, 5), (27, 8), (27, 12), (27, 15), (27, 20),
                 (27, 24), (27, 26), (27, 27), (27, 29), (27, 30), (28, 1), (28, 2), (28, 5), (28, 9), (28, 11),
                 (28, 13), (28, 14), (28, 18), (28, 27), (28, 29), (29, 2), (29, 3), (29, 4), (29, 6), (29, 7), (29, 9),
                 (29, 10), (29, 11), (29, 13), (29, 20), (29, 21), (29, 28), (30, 1), (30, 3), (30, 4), (30, 11),
                 (30, 13), (30, 15), (30, 18), (30, 20), (30, 22), (30, 24), (30, 26), (30, 27), (30, 29), (30, 30))
$ Visualisation for network
$  1  3
$  1  6
$  1  7
$  1  8
$  1  9
$  1 11
$  1 12
$  1 13
$  1 15
$  1 20
$  1 22
$  1 27
$  1 28
$  1 29
$  2  1
$  2  3
$  2  5
$  2  6
$  2  7
$  2  9
$  2 10
$  2 12
$  2 13
$  2 14
$  2 16
$  2 18
$  2 23
$  2 25
$  2 26
$  3  2
$  3  4
$  3  5
$  3  6
$  3  7
$  3  9
$  3 10
$  3 11
$  3 14
$  3 15
$  3 16
$  3 18
$  3 19
$  3 20
$  3 23
$  3 25
$  3 26
$  3 28
$  3 29
$  4  2
$  4  4
$  4  5
$  4  6
$  4  7
$  4  9
$  4 10
$  4 13
$  4 16
$  4 18
$  4 19
$  4 21
$  4 24
$  4 28
$  4 29
$  4 30
$  5  1
$  5  2
$  5  6
$  5 13
$  5 17
$  5 18
$  5 19
$  5 20
$  5 21
$  5 22
$  5 24
$  5 28
$  6  1
$  6  2
$  6  5
$  6  7
$  6  8
$  6 11
$  6 12
$  6 13
$  6 19
$  6 20
$  6 21
$  6 25
$  6 27
$  6 29
$  6 30
$  7  1
$  7  4
$  7  9
$  7 10
$  7 16
$  7 18
$  7 19
$  7 21
$  7 22
$  7 25
$  7 26
$  7 28
$  7 29
$  7 30
$  8  1
$  8  3
$  8  6
$  8  9
$  8 12
$  8 15
$  8 16
$  8 19
$  8 25
$  8 26
$  8 27
$  8 28
$  8 29
$  8 30
$  9  5
$  9  6
$  9  8
$  9 10
$  9 13
$  9 14
$  9 15
$  9 18
$  9 21
$  9 23
$  9 25
$  9 26
$  9 28
$  9 29
$ 10  1
$ 10  3
$ 10  4
$ 10  5
$ 10  9
$ 10 10
$ 10 12
$ 10 14
$ 10 19
$ 10 21
$ 10 22
$ 10 23
$ 10 28
$ 10 29
$ 10 30
$ 11  1
$ 11  4
$ 11  6
$ 11  7
$ 11 10
$ 11 11
$ 11 12
$ 11 13
$ 11 14
$ 11 16
$ 11 17
$ 11 21
$ 11 24
$ 11 25
$ 11 26
$ 11 27
$ 12  1
$ 12  2
$ 12  3
$ 12  5
$ 12  6
$ 12  7
$ 12  8
$ 12 10
$ 12 12
$ 12 14
$ 12 17
$ 12 18
$ 12 21
$ 12 23
$ 12 25
$ 12 28
$ 13  2
$ 13  3
$ 13  8
$ 13  9
$ 13 11
$ 13 14
$ 13 15
$ 13 17
$ 13 18
$ 13 19
$ 13 23
$ 13 26
$ 13 28
$ 13 29
$ 14  2
$ 14  7
$ 14  8
$ 14 11
$ 14 13
$ 14 17
$ 14 22
$ 14 24
$ 14 25
$ 14 28
$ 14 30
$ 15  1
$ 15  2
$ 15  3
$ 15  6
$ 15  7
$ 15 10
$ 15 12
$ 15 13
$ 15 15
$ 15 18
$ 15 22
$ 15 23
$ 15 24
$ 15 26
$ 16  1
$ 16  4
$ 16  5
$ 16  8
$ 16 12
$ 16 14
$ 16 15
$ 16 16
$ 16 18
$ 16 27
$ 16 28
$ 17  1
$ 17  2
$ 17 11
$ 17 12
$ 17 16
$ 17 17
$ 17 18
$ 17 20
$ 17 24
$ 17 25
$ 17 30
$ 18  2
$ 18  3
$ 18  5
$ 18  6
$ 18  8
$ 18  9
$ 18 10
$ 18 12
$ 18 14
$ 18 19
$ 18 23
$ 18 24
$ 18 27
$ 18 28
$ 19  6
$ 19  8
$ 19 10
$ 19 12
$ 19 16
$ 19 19
$ 19 20
$ 19 21
$ 19 23
$ 19 25
$ 19 26
$ 20  3
$ 20  6
$ 20  7
$ 20  8
$ 20  9
$ 20 15
$ 20 17
$ 20 21
$ 20 22
$ 20 24
$ 20 25
$ 20 26
$ 20 29
$ 21  3
$ 21 16
$ 21 18
$ 21 20
$ 21 21
$ 21 22
$ 21 23
$ 21 25
$ 21 27
$ 22  1
$ 22  3
$ 22  5
$ 22  7
$ 22 10
$ 22 11
$ 22 14
$ 22 16
$ 22 22
$ 22 23
$ 22 27
$ 23  1
$ 23  2
$ 23  5
$ 23  6
$ 23  7
$ 23  9
$ 23 13
$ 23 14
$ 23 15
$ 23 16
$ 23 17
$ 23 18
$ 23 20
$ 23 21
$ 23 22
$ 23 23
$ 23 24
$ 23 27
$ 23 30
$ 24  2
$ 24  4
$ 24 13
$ 24 14
$ 24 17
$ 24 18
$ 24 24
$ 24 25
$ 24 26
$ 25  2
$ 25  3
$ 25  4
$ 25  6
$ 25  8
$ 25  9
$ 25 10
$ 25 12
$ 25 13
$ 25 15
$ 25 16
$ 25 17
$ 25 21
$ 25 24
$ 25 25
$ 25 26
$ 25 29
$ 25 30
$ 26  4
$ 26  5
$ 26  7
$ 26  9
$ 26 10
$ 26 11
$ 26 12
$ 26 13
$ 26 16
$ 26 18
$ 26 20
$ 26 21
$ 26 22
$ 26 23
$ 26 25
$ 26 27
$ 26 28
$ 27  2
$ 27  3
$ 27  4
$ 27  5
$ 27  8
$ 27 12
$ 27 15
$ 27 20
$ 27 24
$ 27 26
$ 27 27
$ 27 29
$ 27 30
$ 28  1
$ 28  2
$ 28  5
$ 28  9
$ 28 11
$ 28 13
$ 28 14
$ 28 18
$ 28 27
$ 28 29
$ 29  2
$ 29  3
$ 29  4
$ 29  6
$ 29  7
$ 29  9
$ 29 10
$ 29 11
$ 29 13
$ 29 20
$ 29 21
$ 29 28
$ 30  1
$ 30  3
$ 30  4
$ 30 11
$ 30 13
$ 30 15
$ 30 18
$ 30 20
$ 30 22
$ 30 24
$ 30 26
$ 30 27
$ 30 29
$ 30 30

